NAME : morphed18-2-26
COMMENT : Generated using the function morphInstances from the R-package netgen (Bossek,2015) - Number of clusters: 2 Alpha: 0.5
TYPE : TSP
DIMENSION : 18
EDGE_WEIGHT_TYPE : EUC_2D
NODE_COORD_SECTION
1 4.2192872765 62.6538571883
2 19.0594815357 65.0320157917
3 91.167700251 48.2285198584
4 84.9119712387 46.8493934733
5 22.5955952324 50.0015646618
6 35.9509591739 42.6465782331
7 79.918446354 22.5418894115
8 75.9343507179 41.316535894
9 24.855689601 82.841020664
10 67.0831368874 50.1686764901
11 61.7807679937 36.2592289909
12 17.9548277563 38.0678474568
13 34.7772207315 70.4061787619
14 6.0265114525 44.352095243
15 84.0292387339 38.5189891839
16 54.6019090761 4.6058407971
17 59.4320233692 9.6723800799
18 28.2370272608 83.8712574015
EOF
